77      4       
10      10      10      10      
0       0       0       0       0       4       2       3       4       5       
4       0       0       0       0       6       6       8       9       11      14      17      
2       2       2       3       0       3       7       8       15      
3       2       2       1       3       3       8       14      25      
7       2       2       3       1       6       12      13      14      19      21      25      
5       2       3       1       2       5       12      13      15      16      25      
9       1       2       3       2       3       10      19      21      
4       2       3       2       4       4       12      13      19      21      
10      2       3       3       3       3       12      16      25      
2       3       3       0       3       3       12      13      25      
1       5       3       4       2       2       13      25      
3       4       3       0       4       5       18      20      22      27      31      
3       3       4       0       0       4       18      20      22      27      
7       3       4       0       3       4       18      20      22      31      
3       3       1       0       3       3       18      20      27      
9       2       2       2       1       4       21      22      23      27      
9       1       1       1       2       3       23      25      32      
9       3       3       1       2       3       23      24      28      
8       3       2       2       1       3       23      28      32      
5       3       4       2       4       6       28      29      30      32      33      35      
1       1       2       1       3       7       30      32      34      35      36      37      38      
2       1       2       3       3       6       28      30      33      34      35      37      
4       0       0       5       0       3       26      29      37      
8       0       5       4       5       4       29      30      35      37      
4       3       3       3       0       4       30      31      33      36      
3       1       1       1       1       3       30      35      43      
9       4       2       4       1       6       35      36      38      40      44      52      
9       1       3       2       0       8       38      40      41      42      44      45      46      52      
8       3       4       2       2       3       34      36      44      
8       3       2       3       0       9       39      40      42      44      45      46      52      53      56      
5       2       3       4       2       4       34      43      44      49      
5       1       2       3       0       11      41      42      43      45      47      49      50      52      53      56      58      
4       3       2       5       2       8       38      43      44      45      47      48      50      52      
8       3       2       2       2       8       41      45      47      50      52      53      56      58      
5       3       1       3       2       7       41      46      47      49      53      56      57      
7       2       1       2       2       7       43      49      50      51      53      56      58      
2       2       1       3       3       5       43      45      48      52      63      
6       1       2       4       2       9       49      53      54      55      56      57      58      62      63      
6       5       3       3       3       8       47      48      54      55      57      58      61      63      
10      2       7       2       6       6       47      49      50      54      55      57      
3       2       1       6       1       5       48      51      55      61      63      
3       2       3       1       5       4       51      54      61      63      
7       1       3       2       2       2       46      57      
6       2       3       2       3       8       55      58      59      61      63      64      67      68      
6       2       1       1       3       3       51      54      61      
2       2       2       1       1       4       54      55      62      67      
4       2       1       4       1       4       51      59      64      68      
10      4       1       3       1       6       59      62      64      66      67      74      
4       2       3       3       3       6       59      61      66      67      75      76      
6       4       1       2       1       5       60      61      63      64      76      
1       3       3       2       2       4       60      62      67      75      
2       5       1       3       2       2       55      64      
4       3       4       1       3       6       61      64      65      66      72      73      
8       4       2       1       4       5       59      64      66      68      73      
4       1       5       3       1       4       60      65      73      76      
8       2       4       2       3       7       65      66      68      71      73      74      76      
7       2       1       6       2       3       59      67      74      
1       2       1       2       3       6       65      66      71      72      73      75      
7       4       3       0       2       4       65      69      71      72      
6       5       0       1       2       4       66      71      72      74      
1       4       2       2       3       4       69      70      71      74      
1       0       3       3       6       3       65      73      76      
1       3       2       2       3       3       65      71      72      
2       3       4       4       4       2       69      75      
4       3       2       1       2       1       70      
9       0       4       1       3       1       69      
4       3       2       3       3       1       73      
1       5       1       3       5       1       69      
1       0       5       0       7       1       77      
10      3       4       0       0       1       77      
3       2       3       3       3       1       77      
7       2       3       2       3       1       77      
8       2       2       2       1       1       77      
3       4       3       2       2       1       77      
8       1       2       4       2       1       77      
2       4       3       3       4       1       77      
0       0       0       0       0       0       
